/*********************************************
 * OPL 12.7.1.0 Data
 * Author: mathieu.chiavassa, anthony.nixon
 * Creation Date: Jan 2, 2018 at 6:10:14 PM
 *********************************************/

 numNurses = 200;
 hours =  24;
 demand = [ 53 24 33 40 70 12 33 55 66 12 30 22 55 77 88 22 34 55 22 55 23 22 11 12 ];
 minHours = 6;
 maxHours = 12;
 maxConsec = 6;
 
 maxPresence = 18;
  